************************************************************************
file with basedata            : mm35_.bas
initial value random generator: 14098
************************************************************************
projects                      :  1
jobs (incl. supersource/sink ):  12
horizon                       :  86
RESOURCES
  - renewable                 :  2   R
  - nonrenewable              :  2   N
  - doubly constrained        :  0   D
************************************************************************
PROJECT INFORMATION:
pronr.  #jobs rel.date duedate tardcost  MPM-Time
    1     10      0       15        5       15
************************************************************************
PRECEDENCE RELATIONS:
jobnr.    #modes  #successors   successors
   0        1          3           1   2   3
   1        3          2           6   7
   2        3          3           4   5   8
   3        3          1           5
   4        3          1           7
   5        3          1           9
   6        3          3           8   9  10
   7        3          1          10
   8        3          1          11
   9        3          1          11
  10        3          1          11
  11        1          0        
************************************************************************
REQUESTS/DURATIONS:
jobnr. mode duration  R 1  R 2  R 3  R 4  E(W 1)  E(W 2)
------------------------------------------------------------------------
  0      1     0       0    0    0    0     0       0
  1      1     4       4    8    0    4    48      16
  2      1     4       4    4   10    0    32      40
  3      1     6       8   10    4    0    108      24
  4      1     2       5    7    0    6    24      12
  5      1     3       8    8    0    6    48      18
  6      1     4       9    8    0    8    68      32
  7      1     1       9   10    0   10    19      10
  8      1     5       7    8    0    3    75      15
  9      1     6       8    9    7    0    102      42
 10      1     2       6    3    0    8    18      16
 11      1     0       0    0    0    0     0       0
************************************************************************
RESOURCEAVAILABILITIES:
  R 1  R 2
   25   90
************************************************************************
RESOURCE LIMITS:
jobnr.  l(R 1)  u(R 1)  l(R 2)  u(R 2)
------------------------------------------------------------------------
  0        0       0       0       0
  1        6      12       2       4
  2        4       8       5      10
  3        9      18       2       4
  4        7      12       3       6
  5        8      16       3       6
  6        9      17       4       8
  7       10      19       5      10
  8        8      15       2       3
  9        9      17       4       7
 10        5       9       4       8
 11        0       0       0       0
************************************************************************
SCENARIOS:
------------------------------------------------------------------------
RESOURCE k = 1
s = 1: (0, 50, 40, 163, 38, 36, 51, 23, 73, 152, 21, 0)
s = 2: (0, 39, 30, 103, 16, 35, 58, 35, 89, 93, 17, 0)
s = 3: (0, 36, 31, 109, 21, 38, 67, 13, 76, 159, 16, 0)
s = 4: (0, 38, 63, 122, 18, 69, 59, 11, 87, 71, 14, 0)
s = 5: (0, 53, 33, 95, 15, 53, 87, 15, 63, 149, 17, 0)
s = 6: (0, 29, 32, 112, 35, 44, 95, 15, 107, 122, 15, 0)
s = 7: (0, 57, 19, 98, 31, 49, 98, 27, 77, 97, 30, 0)
s = 8: (0, 54, 27, 124, 23, 60, 48, 18, 107, 121, 21, 0)
s = 9: (0, 48, 33, 106, 27, 63, 65, 16, 72, 88, 18, 0)
s = 10: (0, 48, 37, 60, 30, 37, 74, 29, 52, 105, 15, 0)
s = 11: (0, 55, 28, 139, 22, 42, 69, 19, 58, 69, 15, 0)
s = 12: (0, 29, 47, 127, 34, 45, 83, 20, 91, 109, 13, 0)
s = 13: (0, 51, 30, 116, 25, 32, 83, 16, 54, 110, 11, 0)
s = 14: (0, 31, 45, 167, 17, 49, 62, 22, 52, 60, 24, 0)
s = 15: (0, 56, 24, 151, 19, 60, 83, 18, 73, 99, 22, 0)
s = 16: (0, 47, 22, 118, 19, 31, 52, 15, 77, 66, 16, 0)
s = 17: (0, 44, 21, 110, 21, 30, 38, 22, 45, 75, 20, 0)
s = 18: (0, 50, 29, 142, 28, 54, 56, 17, 70, 96, 19, 0)
s = 19: (0, 34, 25, 89, 17, 42, 84, 22, 117, 104, 21, 0)
s = 20: (0, 32, 21, 105, 15, 68, 106, 18, 44, 119, 21, 0)
s = 21: (0, 66, 36, 107, 14, 58, 104, 17, 52, 150, 12, 0)
s = 22: (0, 31, 48, 99, 27, 58, 113, 12, 67, 167, 20, 0)
s = 23: (0, 53, 22, 161, 20, 59, 120, 16, 45, 66, 18, 0)
s = 24: (0, 48, 22, 137, 21, 55, 49, 18, 65, 138, 16, 0)
s = 25: (0, 74, 50, 108, 23, 28, 55, 16, 91, 165, 13, 0)
s = 26: (0, 44, 31, 130, 27, 32, 111, 18, 62, 58, 21, 0)
s = 27: (0, 40, 30, 93, 24, 55, 42, 15, 84, 127, 34, 0)
s = 28: (0, 48, 36, 118, 23, 28, 81, 23, 125, 115, 18, 0)
s = 29: (0, 40, 47, 190, 24, 30, 91, 24, 61, 86, 11, 0)
s = 30: (0, 66, 40, 79, 21, 38, 99, 18, 48, 190, 17, 0)
s = 31: (0, 58, 19, 92, 41, 30, 76, 22, 76, 96, 14, 0)
s = 32: (0, 53, 25, 120, 29, 32, 72, 18, 97, 116, 33, 0)
s = 33: (0, 40, 47, 122, 31, 52, 73, 15, 72, 80, 12, 0)
s = 34: (0, 43, 34, 158, 27, 78, 57, 19, 85, 97, 26, 0)
s = 35: (0, 59, 38, 95, 21, 28, 96, 12, 128, 134, 19, 0)
s = 36: (0, 48, 45, 69, 24, 54, 40, 18, 61, 66, 16, 0)
s = 37: (0, 27, 31, 91, 35, 31, 42, 28, 56, 94, 17, 0)
s = 38: (0, 42, 35, 117, 19, 42, 88, 13, 57, 104, 26, 0)
s = 39: (0, 65, 30, 66, 26, 65, 39, 16, 70, 100, 16, 0)
s = 40: (0, 67, 25, 88, 43, 31, 81, 36, 63, 144, 11, 0)
s = 41: (0, 53, 36, 178, 17, 31, 55, 17, 62, 116, 15, 0)
s = 42: (0, 35, 21, 143, 32, 51, 55, 22, 77, 68, 14, 0)
s = 43: (0, 32, 45, 101, 19, 45, 80, 20, 98, 109, 16, 0)
s = 44: (0, 61, 31, 70, 24, 53, 77, 15, 81, 97, 13, 0)
s = 45: (0, 40, 48, 72, 25, 33, 83, 13, 68, 84, 18, 0)
s = 46: (0, 58, 29, 141, 22, 60, 52, 21, 105, 102, 14, 0)
s = 47: (0, 35, 19, 131, 17, 69, 65, 17, 77, 80, 18, 0)
s = 48: (0, 71, 26, 148, 25, 65, 62, 26, 64, 72, 22, 0)
s = 49: (0, 45, 31, 147, 20, 38, 89, 24, 74, 108, 15, 0)
s = 50: (0, 40, 25, 134, 19, 60, 53, 21, 58, 116, 16, 0)
s = 51: (0, 28, 29, 92, 29, 50, 40, 24, 110, 136, 12, 0)
s = 52: (0, 43, 24, 123, 30, 48, 75, 22, 72, 129, 18, 0)
s = 53: (0, 36, 44, 109, 35, 52, 92, 12, 89, 86, 17, 0)
s = 54: (0, 34, 32, 144, 26, 51, 55, 23, 90, 115, 10, 0)
s = 55: (0, 49, 41, 59, 32, 48, 81, 19, 112, 121, 15, 0)
s = 56: (0, 32, 37, 64, 23, 52, 73, 17, 56, 164, 27, 0)
s = 57: (0, 29, 25, 88, 16, 53, 67, 28, 106, 101, 16, 0)
s = 58: (0, 28, 42, 115, 37, 33, 71, 25, 94, 114, 32, 0)
s = 59: (0, 40, 29, 87, 18, 48, 93, 17, 91, 156, 20, 0)
s = 60: (0, 61, 23, 143, 37, 41, 59, 17, 67, 57, 18, 0)
s = 61: (0, 31, 25, 100, 23, 61, 65, 25, 63, 114, 24, 0)
s = 62: (0, 46, 23, 66, 39, 56, 69, 26, 49, 67, 20, 0)
s = 63: (0, 69, 23, 79, 16, 50, 116, 18, 76, 71, 11, 0)
s = 64: (0, 59, 42, 143, 15, 38, 83, 19, 61, 55, 20, 0)
s = 65: (0, 39, 28, 192, 29, 31, 47, 19, 87, 108, 28, 0)
s = 66: (0, 61, 44, 108, 22, 50, 49, 14, 67, 92, 21, 0)
s = 67: (0, 42, 33, 97, 25, 57, 109, 13, 91, 54, 27, 0)
s = 68: (0, 69, 23, 57, 19, 34, 89, 22, 82, 97, 14, 0)
s = 69: (0, 26, 21, 190, 17, 69, 69, 20, 134, 99, 28, 0)
s = 70: (0, 65, 23, 120, 23, 46, 57, 19, 97, 122, 17, 0)
s = 71: (0, 74, 32, 148, 31, 51, 101, 34, 50, 90, 24, 0)
s = 72: (0, 31, 26, 122, 15, 35, 95, 11, 71, 84, 22, 0)
s = 73: (0, 51, 48, 109, 21, 48, 61, 18, 45, 119, 24, 0)
s = 74: (0, 77, 35, 128, 32, 32, 40, 15, 55, 76, 27, 0)
s = 75: (0, 33, 32, 99, 26, 39, 71, 21, 121, 72, 12, 0)
s = 76: (0, 34, 29, 107, 21, 48, 45, 14, 83, 80, 16, 0)
s = 77: (0, 42, 24, 81, 34, 34, 57, 14, 67, 83, 15, 0)
s = 78: (0, 72, 31, 104, 20, 41, 119, 27, 72, 89, 12, 0)
s = 79: (0, 46, 32, 127, 24, 34, 54, 14, 93, 88, 19, 0)
s = 80: (0, 37, 32, 147, 33, 39, 55, 21, 97, 172, 24, 0)
s = 81: (0, 34, 31, 85, 23, 38, 64, 12, 56, 132, 30, 0)
s = 82: (0, 65, 24, 107, 32, 55, 85, 21, 54, 126, 25, 0)
s = 83: (0, 61, 46, 66, 17, 64, 77, 22, 56, 141, 14, 0)
s = 84: (0, 50, 21, 87, 17, 60, 59, 28, 93, 127, 16, 0)
s = 85: (0, 75, 24, 70, 18, 30, 66, 20, 78, 84, 14, 0)
s = 86: (0, 49, 32, 89, 16, 46, 73, 19, 104, 122, 11, 0)
s = 87: (0, 47, 31, 66, 25, 39, 72, 24, 50, 77, 20, 0)
s = 88: (0, 40, 34, 97, 19, 39, 41, 23, 86, 69, 24, 0)
s = 89: (0, 70, 22, 118, 35, 43, 67, 26, 94, 77, 23, 0)
s = 90: (0, 71, 26, 119, 22, 54, 40, 26, 44, 108, 10, 0)
s = 91: (0, 36, 37, 95, 16, 48, 115, 27, 108, 93, 19, 0)
s = 92: (0, 29, 27, 106, 25, 39, 88, 19, 80, 127, 20, 0)
s = 93: (0, 56, 19, 136, 23, 59, 64, 15, 61, 144, 12, 0)
s = 94: (0, 69, 34, 78, 36, 48, 46, 23, 79, 121, 19, 0)
s = 95: (0, 58, 34, 59, 19, 32, 57, 28, 79, 81, 14, 0)
s = 96: (0, 40, 31, 182, 26, 30, 35, 19, 60, 111, 14, 0)
s = 97: (0, 47, 36, 100, 27, 64, 67, 15, 56, 65, 13, 0)
s = 98: (0, 42, 30, 147, 24, 77, 97, 15, 91, 129, 14, 0)
s = 99: (0, 66, 26, 108, 19, 36, 56, 14, 64, 90, 15, 0)
s = 100: (0, 52, 38, 112, 17, 50, 54, 14, 135, 127, 14, 0)
s = 101: (0, 71, 43, 108, 21, 61, 114, 11, 65, 86, 12, 0)
s = 102: (0, 46, 26, 84, 32, 28, 42, 15, 47, 123, 10, 0)
s = 103: (0, 79, 21, 88, 19, 49, 70, 18, 52, 112, 19, 0)
s = 104: (0, 49, 41, 86, 31, 38, 65, 19, 96, 139, 18, 0)
s = 105: (0, 42, 28, 114, 16, 71, 69, 18, 124, 89, 16, 0)
s = 106: (0, 41, 35, 169, 18, 34, 45, 19, 104, 61, 20, 0)
s = 107: (0, 43, 29, 99, 19, 50, 64, 18, 50, 93, 14, 0)
s = 108: (0, 33, 21, 122, 20, 33, 80, 18, 109, 102, 21, 0)
s = 109: (0, 35, 35, 143, 23, 28, 62, 16, 58, 106, 21, 0)
s = 110: (0, 44, 36, 147, 22, 38, 49, 26, 95, 84, 29, 0)
s = 111: (0, 47, 27, 62, 23, 37, 41, 18, 79, 75, 15, 0)
s = 112: (0, 45, 31, 117, 22, 53, 42, 22, 50, 116, 21, 0)
s = 113: (0, 47, 53, 99, 20, 67, 77, 14, 46, 68, 19, 0)
s = 114: (0, 71, 38, 80, 20, 40, 92, 14, 70, 138, 19, 0)
s = 115: (0, 68, 28, 119, 32, 55, 69, 20, 84, 94, 13, 0)
s = 116: (0, 57, 33, 80, 21, 35, 45, 26, 46, 63, 16, 0)
s = 117: (0, 56, 30, 111, 14, 40, 45, 11, 64, 81, 18, 0)
s = 118: (0, 62, 38, 87, 34, 46, 93, 18, 72, 61, 12, 0)
s = 119: (0, 33, 39, 94, 26, 77, 55, 19, 73, 83, 19, 0)
s = 120: (0, 42, 55, 75, 28, 38, 50, 22, 65, 72, 17, 0)
s = 121: (0, 37, 41, 104, 30, 76, 102, 18, 52, 108, 23, 0)
s = 122: (0, 66, 33, 74, 23, 45, 111, 17, 101, 78, 19, 0)
s = 123: (0, 29, 20, 104, 23, 71, 65, 23, 73, 136, 13, 0)
s = 124: (0, 47, 19, 126, 30, 44, 81, 23, 99, 93, 16, 0)
s = 125: (0, 38, 49, 135, 26, 45, 62, 16, 118, 123, 22, 0)
s = 126: (0, 35, 38, 96, 30, 76, 92, 18, 47, 107, 19, 0)
s = 127: (0, 50, 36, 114, 17, 78, 51, 35, 115, 107, 21, 0)
s = 128: (0, 59, 29, 154, 19, 73, 49, 14, 54, 122, 13, 0)
s = 129: (0, 39, 21, 103, 34, 49, 41, 12, 40, 119, 22, 0)
s = 130: (0, 51, 23, 86, 18, 55, 51, 13, 50, 153, 17, 0)
s = 131: (0, 52, 48, 94, 24, 59, 84, 21, 77, 73, 23, 0)
s = 132: (0, 47, 21, 139, 22, 31, 108, 18, 83, 97, 20, 0)
s = 133: (0, 52, 20, 131, 18, 50, 99, 14, 80, 103, 23, 0)
s = 134: (0, 37, 43, 89, 36, 55, 52, 13, 84, 79, 12, 0)
s = 135: (0, 73, 35, 123, 18, 49, 68, 14, 96, 132, 22, 0)
s = 136: (0, 71, 30, 206, 27, 86, 57, 30, 60, 114, 24, 0)
s = 137: (0, 38, 21, 143, 28, 31, 70, 19, 51, 116, 15, 0)
s = 138: (0, 39, 28, 89, 38, 51, 61, 14, 54, 68, 12, 0)
s = 139: (0, 57, 46, 94, 14, 37, 60, 23, 48, 104, 24, 0)
s = 140: (0, 39, 33, 143, 17, 39, 45, 21, 45, 114, 20, 0)
s = 141: (0, 47, 40, 128, 31, 26, 116, 27, 79, 83, 12, 0)
s = 142: (0, 46, 29, 106, 23, 47, 50, 16, 54, 69, 10, 0)
s = 143: (0, 43, 25, 182, 23, 46, 69, 27, 63, 124, 21, 0)
s = 144: (0, 39, 23, 75, 21, 62, 75, 27, 116, 73, 22, 0)
s = 145: (0, 27, 26, 104, 20, 47, 62, 29, 52, 77, 14, 0)
s = 146: (0, 46, 24, 156, 18, 67, 54, 19, 55, 99, 11, 0)
s = 147: (0, 67, 25, 61, 22, 34, 55, 22, 97, 103, 18, 0)
s = 148: (0, 37, 56, 84, 21, 83, 72, 28, 94, 75, 24, 0)
s = 149: (0, 57, 44, 105, 13, 47, 60, 20, 61, 53, 13, 0)
s = 150: (0, 31, 25, 103, 20, 43, 56, 23, 94, 88, 12, 0)
s = 151: (0, 58, 35, 61, 23, 47, 97, 25, 69, 113, 21, 0)
s = 152: (0, 47, 34, 64, 21, 51, 64, 17, 56, 117, 12, 0)
s = 153: (0, 58, 35, 90, 24, 28, 76, 13, 123, 114, 23, 0)
s = 154: (0, 62, 28, 144, 16, 41, 96, 13, 60, 170, 16, 0)
s = 155: (0, 51, 30, 96, 18, 71, 47, 11, 99, 56, 16, 0)
s = 156: (0, 50, 22, 88, 20, 33, 80, 16, 68, 79, 13, 0)
s = 157: (0, 50, 31, 63, 25, 36, 83, 21, 99, 138, 19, 0)
s = 158: (0, 34, 29, 74, 26, 53, 63, 13, 92, 101, 16, 0)
s = 159: (0, 51, 24, 62, 32, 57, 80, 18, 70, 142, 17, 0)
s = 160: (0, 58, 24, 156, 27, 36, 44, 15, 104, 63, 22, 0)
s = 161: (0, 28, 29, 116, 36, 66, 64, 18, 63, 119, 30, 0)
s = 162: (0, 52, 41, 106, 22, 36, 61, 25, 79, 80, 21, 0)
s = 163: (0, 35, 49, 89, 17, 62, 61, 20, 107, 124, 31, 0)
s = 164: (0, 65, 42, 65, 29, 40, 99, 16, 104, 134, 23, 0)
s = 165: (0, 38, 45, 90, 27, 35, 69, 24, 74, 92, 23, 0)
s = 166: (0, 60, 31, 92, 17, 38, 48, 17, 74, 92, 15, 0)
s = 167: (0, 47, 40, 91, 28, 39, 103, 16, 53, 80, 15, 0)
s = 168: (0, 56, 23, 81, 17, 37, 50, 24, 108, 61, 20, 0)
s = 169: (0, 35, 24, 111, 32, 65, 104, 22, 86, 90, 18, 0)
s = 170: (0, 46, 25, 112, 20, 65, 82, 15, 60, 61, 23, 0)
s = 171: (0, 72, 25, 63, 19, 34, 65, 15, 90, 54, 11, 0)
s = 172: (0, 33, 46, 111, 22, 43, 80, 30, 46, 108, 22, 0)
s = 173: (0, 37, 44, 139, 25, 55, 85, 17, 72, 106, 11, 0)
s = 174: (0, 58, 48, 123, 34, 73, 80, 28, 67, 72, 27, 0)
s = 175: (0, 30, 32, 67, 14, 37, 47, 16, 56, 92, 23, 0)
s = 176: (0, 42, 26, 115, 23, 36, 69, 15, 75, 119, 11, 0)
s = 177: (0, 40, 29, 101, 30, 71, 56, 29, 101, 164, 21, 0)
s = 178: (0, 29, 44, 140, 19, 41, 69, 24, 69, 81, 24, 0)
s = 179: (0, 39, 31, 89, 19, 34, 94, 26, 53, 97, 14, 0)
s = 180: (0, 34, 30, 191, 35, 69, 51, 21, 51, 117, 14, 0)
s = 181: (0, 46, 49, 95, 21, 41, 49, 24, 89, 141, 24, 0)
s = 182: (0, 32, 30, 114, 26, 44, 95, 15, 46, 81, 33, 0)
s = 183: (0, 42, 30, 77, 25, 54, 44, 20, 81, 108, 13, 0)
s = 184: (0, 72, 36, 94, 17, 33, 77, 20, 46, 80, 26, 0)
s = 185: (0, 50, 25, 132, 26, 44, 100, 21, 59, 118, 18, 0)
s = 186: (0, 44, 34, 78, 23, 51, 86, 19, 60, 121, 16, 0)
s = 187: (0, 37, 50, 69, 13, 71, 39, 22, 96, 69, 12, 0)
s = 188: (0, 69, 43, 124, 17, 38, 94, 21, 54, 111, 16, 0)
s = 189: (0, 33, 29, 57, 29, 52, 58, 25, 100, 95, 19, 0)
s = 190: (0, 91, 43, 117, 19, 39, 104, 22, 75, 152, 18, 0)
s = 191: (0, 40, 24, 110, 23, 48, 86, 25, 68, 89, 17, 0)
s = 192: (0, 50, 38, 82, 15, 29, 49, 12, 132, 85, 24, 0)
s = 193: (0, 68, 17, 177, 29, 42, 107, 18, 83, 93, 21, 0)
s = 194: (0, 41, 35, 163, 18, 40, 48, 17, 73, 141, 17, 0)
s = 195: (0, 34, 22, 118, 26, 31, 59, 15, 67, 87, 23, 0)
s = 196: (0, 37, 32, 65, 25, 33, 52, 23, 62, 139, 15, 0)
s = 197: (0, 31, 38, 156, 30, 61, 39, 24, 62, 92, 16, 0)
s = 198: (0, 44, 31, 145, 42, 56, 111, 27, 57, 122, 25, 0)
s = 199: (0, 61, 29, 87, 25, 32, 36, 23, 77, 127, 17, 0)
s = 200: (0, 36, 28, 167, 28, 32, 52, 18, 104, 57, 20, 0)
------------------------------------------------------------------------
RESOURCE k = 2
s = 1: (0, 17, 50, 37, 19, 14, 24, 12, 15, 63, 19, 0)
s = 2: (0, 13, 38, 23, 8, 13, 28, 19, 18, 39, 16, 0)
s = 3: (0, 12, 39, 25, 11, 15, 32, 7, 16, 66, 15, 0)
s = 4: (0, 13, 79, 28, 9, 26, 28, 6, 18, 30, 13, 0)
s = 5: (0, 18, 41, 22, 8, 20, 41, 8, 13, 62, 15, 0)
s = 6: (0, 10, 40, 25, 18, 17, 45, 8, 22, 51, 14, 0)
s = 7: (0, 19, 24, 22, 16, 19, 46, 14, 16, 40, 27, 0)
s = 8: (0, 18, 33, 28, 12, 23, 23, 10, 22, 50, 19, 0)
s = 9: (0, 16, 42, 24, 14, 24, 31, 9, 15, 36, 16, 0)
s = 10: (0, 16, 46, 14, 15, 14, 35, 16, 11, 44, 14, 0)
s = 11: (0, 19, 35, 31, 11, 16, 33, 10, 12, 29, 14, 0)
s = 12: (0, 10, 59, 29, 17, 17, 39, 11, 19, 45, 11, 0)
s = 13: (0, 17, 38, 26, 13, 12, 39, 8, 11, 46, 10, 0)
s = 14: (0, 11, 56, 38, 9, 19, 29, 12, 11, 25, 21, 0)
s = 15: (0, 19, 30, 34, 10, 23, 39, 10, 15, 41, 19, 0)
s = 16: (0, 16, 28, 27, 10, 12, 25, 8, 16, 27, 14, 0)
s = 17: (0, 15, 26, 25, 11, 12, 18, 12, 9, 31, 18, 0)
s = 18: (0, 17, 36, 32, 14, 21, 27, 9, 14, 40, 17, 0)
s = 19: (0, 12, 31, 20, 9, 16, 40, 12, 24, 43, 18, 0)
s = 20: (0, 11, 26, 24, 8, 26, 50, 10, 9, 49, 19, 0)
s = 21: (0, 22, 45, 24, 7, 22, 49, 9, 11, 62, 11, 0)
s = 22: (0, 11, 60, 22, 14, 22, 53, 7, 14, 69, 18, 0)
s = 23: (0, 18, 27, 36, 10, 22, 57, 8, 9, 27, 16, 0)
s = 24: (0, 16, 27, 31, 11, 21, 24, 10, 13, 57, 14, 0)
s = 25: (0, 25, 62, 24, 12, 11, 26, 9, 19, 68, 12, 0)
s = 26: (0, 15, 39, 29, 14, 12, 52, 10, 13, 24, 19, 0)
s = 27: (0, 14, 38, 21, 12, 21, 20, 8, 17, 53, 31, 0)
s = 28: (0, 16, 44, 27, 12, 11, 39, 12, 25, 47, 16, 0)
s = 29: (0, 14, 58, 43, 12, 12, 43, 13, 13, 36, 10, 0)
s = 30: (0, 22, 49, 18, 11, 15, 47, 10, 10, 78, 15, 0)
s = 31: (0, 20, 24, 21, 21, 12, 36, 12, 16, 40, 13, 0)
s = 32: (0, 18, 32, 27, 15, 12, 34, 10, 20, 48, 29, 0)
s = 33: (0, 14, 59, 27, 16, 20, 34, 8, 15, 33, 11, 0)
s = 34: (0, 15, 42, 35, 14, 29, 27, 10, 17, 40, 23, 0)
s = 35: (0, 20, 47, 21, 11, 11, 45, 7, 26, 55, 17, 0)
s = 36: (0, 16, 56, 16, 12, 20, 19, 10, 13, 27, 15, 0)
s = 37: (0, 9, 39, 21, 18, 12, 20, 15, 12, 39, 16, 0)
s = 38: (0, 14, 44, 26, 10, 16, 41, 7, 12, 43, 23, 0)
s = 39: (0, 22, 37, 15, 13, 25, 18, 9, 14, 41, 15, 0)
s = 40: (0, 23, 31, 20, 22, 12, 38, 19, 13, 59, 10, 0)
s = 41: (0, 18, 45, 40, 9, 12, 26, 9, 13, 48, 13, 0)
s = 42: (0, 12, 27, 32, 16, 19, 26, 12, 16, 28, 12, 0)
s = 43: (0, 11, 56, 23, 10, 17, 38, 11, 20, 45, 15, 0)
s = 44: (0, 21, 39, 16, 12, 20, 37, 8, 17, 40, 12, 0)
s = 45: (0, 14, 59, 16, 13, 13, 39, 7, 14, 35, 16, 0)
s = 46: (0, 20, 37, 32, 11, 23, 25, 11, 21, 42, 12, 0)
s = 47: (0, 12, 24, 29, 9, 26, 31, 9, 16, 33, 16, 0)
s = 48: (0, 24, 32, 33, 13, 25, 30, 14, 13, 30, 20, 0)
s = 49: (0, 15, 39, 33, 10, 15, 42, 13, 15, 45, 13, 0)
s = 50: (0, 14, 31, 30, 10, 23, 25, 11, 12, 48, 15, 0)
s = 51: (0, 10, 37, 21, 15, 19, 19, 13, 22, 56, 11, 0)
s = 52: (0, 15, 29, 28, 15, 18, 36, 12, 15, 53, 16, 0)
s = 53: (0, 12, 55, 25, 18, 20, 43, 6, 18, 36, 15, 0)
s = 54: (0, 12, 39, 32, 13, 19, 26, 12, 18, 48, 9, 0)
s = 55: (0, 17, 52, 14, 16, 18, 38, 10, 23, 50, 13, 0)
s = 56: (0, 11, 46, 15, 12, 20, 34, 9, 12, 68, 24, 0)
s = 57: (0, 10, 31, 20, 8, 20, 32, 15, 22, 42, 14, 0)
s = 58: (0, 10, 53, 26, 19, 13, 34, 13, 19, 47, 28, 0)
s = 59: (0, 14, 37, 20, 9, 18, 44, 9, 19, 64, 18, 0)
s = 60: (0, 21, 29, 32, 19, 16, 28, 9, 14, 24, 16, 0)
s = 61: (0, 11, 31, 23, 12, 23, 31, 13, 13, 47, 21, 0)
s = 62: (0, 16, 28, 15, 20, 21, 33, 14, 10, 28, 18, 0)
s = 63: (0, 23, 29, 18, 8, 19, 55, 10, 16, 29, 10, 0)
s = 64: (0, 20, 52, 32, 8, 14, 39, 10, 13, 23, 18, 0)
s = 65: (0, 13, 35, 43, 15, 12, 22, 10, 18, 45, 25, 0)
s = 66: (0, 21, 54, 24, 11, 19, 23, 7, 14, 38, 19, 0)
s = 67: (0, 14, 42, 22, 13, 22, 52, 7, 19, 22, 24, 0)
s = 68: (0, 23, 28, 13, 10, 13, 42, 12, 17, 40, 13, 0)
s = 69: (0, 9, 26, 43, 9, 26, 33, 11, 27, 41, 25, 0)
s = 70: (0, 22, 29, 27, 12, 17, 27, 10, 20, 51, 15, 0)
s = 71: (0, 25, 40, 33, 16, 20, 48, 18, 10, 37, 21, 0)
s = 72: (0, 11, 32, 27, 8, 13, 45, 6, 15, 35, 20, 0)
s = 73: (0, 17, 60, 25, 11, 18, 29, 10, 9, 49, 21, 0)
s = 74: (0, 26, 43, 29, 16, 12, 19, 8, 11, 32, 24, 0)
s = 75: (0, 11, 40, 22, 13, 15, 34, 11, 25, 30, 10, 0)
s = 76: (0, 12, 36, 24, 11, 18, 21, 8, 17, 33, 14, 0)
s = 77: (0, 14, 29, 18, 17, 13, 27, 7, 14, 35, 13, 0)
s = 78: (0, 24, 39, 23, 10, 16, 56, 15, 15, 37, 11, 0)
s = 79: (0, 16, 40, 29, 12, 13, 26, 8, 19, 37, 17, 0)
s = 80: (0, 13, 40, 33, 17, 15, 26, 11, 20, 71, 21, 0)
s = 81: (0, 12, 38, 19, 12, 15, 31, 7, 12, 55, 27, 0)
s = 82: (0, 22, 30, 24, 16, 21, 40, 12, 11, 52, 22, 0)
s = 83: (0, 21, 57, 15, 9, 24, 36, 12, 12, 58, 12, 0)
s = 84: (0, 17, 26, 20, 9, 23, 28, 15, 19, 52, 14, 0)
s = 85: (0, 25, 30, 16, 9, 11, 31, 11, 16, 35, 12, 0)
s = 86: (0, 17, 40, 20, 8, 17, 35, 10, 21, 50, 10, 0)
s = 87: (0, 16, 39, 15, 13, 15, 34, 13, 10, 32, 18, 0)
s = 88: (0, 14, 42, 22, 10, 15, 19, 12, 18, 29, 21, 0)
s = 89: (0, 24, 28, 27, 18, 16, 32, 14, 19, 32, 20, 0)
s = 90: (0, 24, 32, 27, 11, 21, 19, 14, 9, 45, 9, 0)
s = 91: (0, 12, 46, 21, 8, 18, 54, 14, 22, 38, 17, 0)
s = 92: (0, 10, 34, 24, 13, 15, 42, 10, 16, 53, 18, 0)
s = 93: (0, 19, 24, 31, 12, 23, 31, 8, 13, 60, 11, 0)
s = 94: (0, 23, 42, 18, 18, 18, 22, 12, 16, 50, 17, 0)
s = 95: (0, 20, 42, 13, 10, 12, 27, 15, 16, 34, 12, 0)
s = 96: (0, 14, 38, 41, 13, 12, 17, 10, 12, 46, 13, 0)
s = 97: (0, 16, 45, 23, 14, 24, 32, 8, 12, 27, 11, 0)
s = 98: (0, 14, 37, 33, 12, 29, 46, 8, 19, 54, 12, 0)
s = 99: (0, 22, 33, 24, 10, 14, 27, 8, 13, 38, 13, 0)
s = 100: (0, 18, 47, 25, 9, 19, 26, 8, 27, 53, 13, 0)
s = 101: (0, 24, 53, 24, 11, 23, 54, 6, 13, 36, 11, 0)
s = 102: (0, 16, 33, 19, 16, 11, 20, 8, 10, 51, 9, 0)
s = 103: (0, 27, 26, 20, 10, 19, 33, 10, 11, 47, 17, 0)
s = 104: (0, 17, 51, 19, 16, 14, 31, 10, 20, 57, 16, 0)
s = 105: (0, 14, 35, 26, 8, 27, 33, 10, 25, 37, 14, 0)
s = 106: (0, 14, 44, 38, 9, 13, 21, 10, 21, 26, 18, 0)
s = 107: (0, 15, 36, 22, 10, 19, 30, 10, 10, 39, 13, 0)
s = 108: (0, 11, 26, 28, 10, 13, 38, 10, 22, 42, 19, 0)
s = 109: (0, 12, 44, 32, 12, 11, 29, 9, 12, 44, 19, 0)
s = 110: (0, 15, 44, 33, 11, 14, 23, 14, 19, 35, 26, 0)
s = 111: (0, 16, 34, 14, 12, 14, 19, 10, 16, 31, 13, 0)
s = 112: (0, 15, 39, 26, 11, 20, 20, 12, 10, 48, 19, 0)
s = 113: (0, 16, 66, 22, 10, 25, 37, 8, 10, 28, 17, 0)
s = 114: (0, 24, 48, 18, 10, 15, 44, 8, 14, 57, 17, 0)
s = 115: (0, 23, 35, 27, 16, 21, 33, 11, 17, 39, 11, 0)
s = 116: (0, 19, 41, 18, 11, 14, 21, 14, 10, 26, 14, 0)
s = 117: (0, 19, 38, 25, 7, 15, 21, 6, 13, 34, 16, 0)
s = 118: (0, 21, 47, 20, 17, 18, 44, 10, 15, 25, 10, 0)
s = 119: (0, 11, 48, 21, 13, 29, 26, 10, 15, 34, 17, 0)
s = 120: (0, 14, 69, 17, 14, 15, 24, 12, 13, 30, 15, 0)
s = 121: (0, 13, 51, 23, 15, 29, 48, 10, 11, 45, 20, 0)
s = 122: (0, 22, 42, 17, 12, 17, 53, 9, 21, 33, 17, 0)
s = 123: (0, 10, 24, 24, 12, 27, 31, 12, 15, 56, 12, 0)
s = 124: (0, 16, 23, 28, 15, 17, 38, 12, 20, 38, 14, 0)
s = 125: (0, 13, 62, 30, 13, 17, 29, 9, 24, 51, 20, 0)
s = 126: (0, 12, 48, 22, 15, 29, 43, 10, 10, 44, 17, 0)
s = 127: (0, 17, 45, 26, 9, 30, 24, 19, 23, 44, 19, 0)
s = 128: (0, 20, 37, 35, 10, 28, 23, 7, 11, 50, 12, 0)
s = 129: (0, 13, 27, 23, 17, 19, 20, 7, 8, 49, 19, 0)
s = 130: (0, 17, 28, 19, 9, 21, 24, 7, 10, 63, 15, 0)
s = 131: (0, 18, 60, 21, 12, 22, 40, 11, 16, 30, 20, 0)
s = 132: (0, 16, 26, 31, 11, 12, 51, 10, 17, 40, 18, 0)
s = 133: (0, 18, 25, 29, 9, 19, 47, 8, 16, 43, 21, 0)
s = 134: (0, 13, 54, 20, 18, 21, 25, 7, 17, 33, 11, 0)
s = 135: (0, 25, 43, 28, 9, 19, 32, 7, 20, 55, 19, 0)
s = 136: (0, 24, 37, 46, 14, 33, 27, 16, 12, 47, 22, 0)
s = 137: (0, 13, 26, 32, 14, 12, 33, 10, 11, 48, 13, 0)
s = 138: (0, 13, 35, 20, 19, 19, 29, 7, 11, 28, 11, 0)
s = 139: (0, 19, 58, 21, 7, 14, 28, 12, 10, 43, 21, 0)
s = 140: (0, 13, 41, 32, 9, 15, 21, 11, 9, 47, 18, 0)
s = 141: (0, 16, 50, 29, 16, 10, 55, 15, 16, 35, 11, 0)
s = 142: (0, 16, 37, 24, 12, 18, 24, 9, 11, 29, 9, 0)
s = 143: (0, 15, 31, 41, 12, 18, 33, 15, 13, 51, 19, 0)
s = 144: (0, 13, 28, 17, 11, 24, 36, 15, 24, 31, 19, 0)
s = 145: (0, 9, 32, 23, 10, 18, 29, 15, 11, 32, 13, 0)
s = 146: (0, 16, 30, 35, 9, 25, 25, 10, 11, 41, 10, 0)
s = 147: (0, 23, 32, 14, 11, 13, 26, 12, 20, 43, 16, 0)
s = 148: (0, 13, 69, 19, 11, 31, 34, 15, 19, 31, 21, 0)
s = 149: (0, 19, 55, 24, 7, 18, 28, 11, 13, 22, 12, 0)
s = 150: (0, 11, 31, 23, 10, 17, 27, 13, 19, 36, 11, 0)
s = 151: (0, 20, 44, 14, 12, 18, 46, 14, 14, 47, 19, 0)
s = 152: (0, 16, 43, 15, 11, 19, 30, 9, 12, 48, 10, 0)
s = 153: (0, 20, 43, 20, 12, 11, 36, 7, 25, 47, 21, 0)
s = 154: (0, 21, 35, 32, 8, 16, 46, 7, 12, 70, 14, 0)
s = 155: (0, 17, 37, 22, 9, 27, 22, 6, 20, 23, 14, 0)
s = 156: (0, 17, 27, 20, 10, 13, 38, 9, 14, 33, 12, 0)
s = 157: (0, 17, 39, 14, 13, 14, 39, 12, 20, 57, 17, 0)
s = 158: (0, 12, 36, 17, 13, 20, 30, 7, 19, 42, 15, 0)
s = 159: (0, 17, 30, 14, 16, 22, 38, 10, 14, 59, 15, 0)
s = 160: (0, 20, 29, 35, 14, 14, 21, 8, 21, 26, 19, 0)
s = 161: (0, 10, 36, 26, 18, 25, 30, 10, 13, 49, 27, 0)
s = 162: (0, 18, 51, 24, 11, 14, 29, 13, 16, 33, 19, 0)
s = 163: (0, 12, 62, 20, 9, 24, 29, 11, 22, 51, 27, 0)
s = 164: (0, 22, 53, 15, 15, 15, 47, 8, 21, 55, 20, 0)
s = 165: (0, 13, 56, 20, 14, 13, 33, 13, 15, 38, 20, 0)
s = 166: (0, 20, 39, 21, 9, 15, 23, 9, 15, 38, 14, 0)
s = 167: (0, 16, 50, 21, 14, 15, 49, 9, 11, 33, 14, 0)
s = 168: (0, 19, 29, 18, 9, 14, 24, 13, 22, 26, 18, 0)
s = 169: (0, 12, 30, 25, 16, 25, 49, 12, 18, 37, 16, 0)
s = 170: (0, 16, 31, 25, 10, 25, 39, 8, 12, 26, 20, 0)
s = 171: (0, 24, 32, 14, 10, 13, 31, 8, 18, 22, 10, 0)
s = 172: (0, 11, 57, 25, 11, 16, 38, 16, 10, 45, 19, 0)
s = 173: (0, 13, 54, 31, 13, 21, 40, 9, 15, 44, 10, 0)
s = 174: (0, 20, 60, 28, 17, 28, 38, 15, 14, 30, 24, 0)
s = 175: (0, 10, 40, 15, 7, 14, 22, 9, 12, 38, 20, 0)
s = 176: (0, 14, 33, 26, 12, 14, 33, 8, 15, 49, 10, 0)
s = 177: (0, 14, 36, 23, 15, 27, 26, 15, 21, 68, 18, 0)
s = 178: (0, 10, 55, 31, 10, 16, 33, 13, 14, 34, 21, 0)
s = 179: (0, 13, 39, 20, 10, 13, 44, 14, 11, 40, 13, 0)
s = 180: (0, 12, 37, 43, 18, 26, 24, 11, 11, 48, 12, 0)
s = 181: (0, 16, 62, 21, 11, 16, 23, 13, 18, 58, 21, 0)
s = 182: (0, 11, 38, 26, 13, 17, 45, 8, 10, 33, 29, 0)
s = 183: (0, 14, 37, 17, 13, 21, 21, 11, 17, 45, 11, 0)
s = 184: (0, 24, 44, 21, 9, 13, 36, 11, 10, 33, 23, 0)
s = 185: (0, 17, 31, 30, 13, 17, 47, 11, 12, 49, 16, 0)
s = 186: (0, 15, 43, 18, 12, 19, 41, 10, 12, 50, 14, 0)
s = 187: (0, 13, 62, 16, 7, 27, 19, 12, 20, 29, 11, 0)
s = 188: (0, 23, 53, 28, 9, 14, 45, 11, 11, 46, 14, 0)
s = 189: (0, 11, 36, 13, 15, 20, 28, 13, 20, 40, 17, 0)
s = 190: (0, 31, 53, 26, 10, 15, 49, 12, 15, 63, 16, 0)
s = 191: (0, 14, 30, 25, 12, 18, 41, 13, 14, 37, 15, 0)
s = 192: (0, 17, 48, 19, 8, 11, 23, 7, 27, 35, 21, 0)
s = 193: (0, 23, 21, 40, 15, 16, 51, 10, 17, 39, 18, 0)
s = 194: (0, 14, 43, 37, 9, 15, 23, 9, 15, 58, 15, 0)
s = 195: (0, 12, 27, 27, 13, 12, 28, 8, 14, 36, 21, 0)
s = 196: (0, 13, 40, 15, 13, 13, 25, 12, 13, 57, 13, 0)
s = 197: (0, 11, 47, 35, 15, 23, 19, 13, 13, 38, 15, 0)
s = 198: (0, 15, 38, 33, 21, 21, 52, 14, 12, 50, 23, 0)
s = 199: (0, 21, 36, 20, 13, 12, 17, 12, 16, 52, 15, 0)
s = 200: (0, 12, 35, 38, 14, 12, 25, 10, 21, 24, 18, 0)
************************************************************************
ES/LS-VALUES:
jobnr.   ES(i)    LS(i)
------------------------------------------------------------------------
  0        0        0
  1        0       58
  2        0       60
  3        0       56
  4        7       76
  5       11       68
  6        7       66
  7       10       80
  8       14       77
  9       16       74
 10       14       82
 11       27       86
************************************************************************
BIG-M-VALUES:
M1 = 46, M2 = 268
************************************************************************
